\ENCODING=ISO-8859-1
\Problem name: example/testp2.lp

Minimize
 OBJ: 0.46 x0 + 0.64 x1 + 5.88 x2 - 8.91 x3 + 106.99 x4 + 26.92 x5 - 43.83 x6
Subject To
 C3: 11.82 x0 + 14.43 x1 + 14.08 x2 + 15.5 x3 + 11.11 x4 + 5.27 x5 + 14.75 x6
     + s0  = 83.51
 C4: 5.69 x0 + 16.74 x1 + 18.79 x2 + 6.99 x3 + 19.28 x4 + 12.88 x5 + 14.9 x6
     + s1  = 127.75
 C5: 10.33 x0 + 19.23 x1 + 14.25 x2 + 0.77 x3 + 0.88 x4 + 5.11 x5 + 13.15 x6
     + s2  = 90.15
Bounds
 0 <= x3 <= 1
 0 <= x4 <= 1
      x5 >= 0
      x6 >= 0
Binaries
 x3  x4 
Generals
 x5  x6 
End
